0 103 
1 106 
2 108 
3 111 
4 111 
5 112 
6 109 
7 107 
8 105 
9 104 
10 104 
11 103 
12 105 
13 103 
14 105 
15 103 
16 100 
17 101 
18 99 
19 97 
20 94 
21 94 
22 94 
23 92 
24 92 
25 92 
26 92 
27 91 
28 90 
29 89 
30 89 
31 92 
32 92 
33 93 
34 93 
35 94 
36 91 
37 92 
38 88 
39 87 
40 82 
41 78 
42 75 
43 75 
44 77 
45 77 
46 79 
47 76 
48 75 
49 75 
50 73 
51 74 
52 74 
53 72 
54 71 
55 68 
56 70 
57 68 
58 66 
59 63 
60 60 
61 58 
62 56 
63 55 
64 52 
65 53 
66 51 
67 50 
68 52 
69 50 
70 50 
71 49 
72 50 
73 52 
74 50 
75 50 
76 49 
77 50 
78 49 
79 47 
80 46 
81 46 
82 44 
83 42 
84 43 
85 47 
86 46 
87 44 
88 42 
89 39 
90 37 
91 38 
92 36 
93 35 
94 33 
95 30 
96 28 
97 28 
98 28 
99 26 
100 26 
101 24 
102 21 
103 20 
104 18 
105 14 
106 12 
107 11 
108 7 
109 5 
110 5 
111 6 
112 5 
113 3 
114 2 
115 1 
116 0 
117 0 

